solving instance mcnd arcs c51 3 6 sinabc1
presolving:
(round 1, fast)       30 del vars, 30 del conss, 0 add conss, 519 chg bounds, 0 chg sides, 0 chg coeffs, 0 upgd conss, 0 impls, 0 clqs
(round 2, exhaustive) 60 del vars, 30 del conss, 0 add conss, 519 chg bounds, 0 chg sides, 0 chg coeffs, 52419 upgd conss, 0 impls, 0 clqs
   (0.9s) probing: 51/519 (9.8%) - 0 fixings, 0 aggregations, 0 implications, 0 bound changes
   (0.9s) probing aborted: 50/50 successive totally useless probings
   (0.9s) symmetry computation started: requiring (bin +, int +, cont +), (fixed: bin -, int -, cont -)
   (1.2s) no symmetry present (symcode time: 0.10)
presolving (3 rounds: 3 fast, 2 medium, 2 exhaustive):
 60 deleted vars, 30 deleted constraints, 0 added constraints, 519 tightened bounds, 0 added holes, 0 changed sides, 0 changed coefficients
 52419 implications, 0 cliques
presolved problem has 53457 variables (519 bin, 0 int, 0 impl, 52938 cont) and 57006 constraints
  52419 constraints of type <varbound>
   4068 constraints of type <linear>
    519 constraints of type <nonlinear>
Presolving Time: 1.00

 time | node  | left  |LP iter|LP it/n|mem/heur|mdpt |vars |cons |rows |cuts |sepa|confs|strbr|  dualbound   | primalbound  |  gap   | compl. 
t 491s|     1 |     0 |149067 |     - |  trysol|   0 |  54k|  57k|  59k|   0 |  0 |   0 |   0 |-9.899139e-04 | 9.897387e+04 |    Inf | unknown
 1760s|     1 |     0 |332594 |     - |   443M |   0 |  54k|  57k|  59k|   0 |  0 |   0 |   0 | 1.866425e+04 | 9.897387e+04 | 430.29%| unknown
t1897s|     1 |     0 |359269 |     - |  trysol|   0 |  54k|  57k|  59k|   0 |  0 |   0 |   0 | 1.866425e+04 | 9.794487e+04 | 424.77%| unknown
 2034s|     1 |     0 |381556 |     - |   469M |   0 |  54k|  57k|  60k| 477 |  1 |   0 |   0 | 2.564777e+04 | 9.794487e+04 | 281.88%| unknown
t2034s|     1 |     0 |381556 |     - |  trysol|   0 |  54k|  57k|  60k| 477 |  1 |   0 |   0 | 2.564777e+04 | 7.843956e+04 | 205.83%| unknown
 2147s|     1 |     0 |400262 |     - |   478M |   0 |  54k|  57k|  60k| 799 |  2 |   0 |   0 | 2.936842e+04 | 7.843956e+04 | 167.09%| unknown
t2159s|     1 |     0 |400262 |     - |  trysol|   0 |  54k|  57k|  60k| 799 |  2 |   0 |   0 | 2.936842e+04 | 7.103258e+04 | 141.87%| unknown
 2159s|     1 |     0 |400262 |     - |   480M |   0 |  54k|  57k|  60k| 799 |  2 |   0 |   0 | 2.936842e+04 | 7.103258e+04 | 141.87%| unknown
 2159s|     1 |     0 |400262 |     - |   480M |   0 |  54k|  57k|  60k| 799 |  2 |   0 |   0 | 2.936842e+04 | 7.103258e+04 | 141.87%| unknown
 2255s|     1 |     0 |415523 |     - |   487M |   0 |  54k|  57k|  60k|1007 |  3 |   0 |   0 | 3.078729e+04 | 7.103258e+04 | 130.72%| unknown
t2256s|     1 |     0 |415523 |     - |  trysol|   0 |  54k|  57k|  60k|1007 |  3 |   0 |   0 | 3.078729e+04 | 6.776471e+04 | 120.11%| unknown
 2326s|     1 |     0 |429175 |     - |   495M |   0 |  54k|  57k|  60k|1134 |  4 |   0 |   0 | 3.126544e+04 | 6.776471e+04 | 116.74%| unknown
t2326s|     1 |     0 |429175 |     - |  trysol|   0 |  54k|  57k|  60k|1134 |  4 |   0 |   0 | 3.126544e+04 | 6.440728e+04 | 106.00%| unknown
 2405s|     1 |     0 |442036 |     - |   502M |   0 |  54k|  57k|  60k|1211 |  5 |   0 |   0 | 3.158078e+04 | 6.440728e+04 | 103.94%| unknown
 2422s|     1 |     0 |442044 |     - |   503M |   0 |  54k|  57k|  60k|1211 |  5 |   0 |   0 | 3.158078e+04 | 6.440728e+04 | 103.94%| unknown
 time | node  | left  |LP iter|LP it/n|mem/heur|mdpt |vars |cons |rows |cuts |sepa|confs|strbr|  dualbound   | primalbound  |  gap   | compl. 
r2479s|     1 |     0 |442044 |     - |simplero|   0 |  54k|  57k|  60k|1211 |  5 |   0 |   0 | 3.158078e+04 | 5.800121e+04 |  83.66%| unknown
 2539s|     1 |     0 |452926 |     - |   511M |   0 |  54k|  57k|  60k|1274 |  6 |   0 |   0 | 3.170355e+04 | 5.800121e+04 |  82.95%| unknown
 2557s|     1 |     0 |452927 |     - |   512M |   0 |  54k|  57k|  60k|1274 |  6 |   0 |   0 | 3.170355e+04 | 5.800121e+04 |  82.95%| unknown
 2617s|     1 |     0 |463976 |     - |   518M |   0 |  54k|  57k|  60k|1317 |  7 |   0 |   0 | 3.181032e+04 | 5.800121e+04 |  82.33%| unknown
 2690s|     1 |     0 |474724 |     - |   524M |   0 |  54k|  57k|  60k|1349 |  8 |   0 |   0 | 3.188638e+04 | 5.800121e+04 |  81.90%| unknown
 2733s|     1 |     0 |480564 |     - |   531M |   0 |  54k|  57k|  60k|1381 |  9 |   0 |   0 | 3.191293e+04 | 5.800121e+04 |  81.75%| unknown
 2786s|     1 |     0 |490663 |     - |   537M |   0 |  54k|  57k|  61k|1402 | 10 |   0 |   0 | 3.197478e+04 | 5.800121e+04 |  81.40%| unknown
 2822s|     1 |     0 |495475 |     - |   544M |   0 |  54k|  57k|  61k|1420 | 11 |   0 |   0 | 3.202026e+04 | 5.800121e+04 |  81.14%| unknown
 2828s|     1 |     0 |496665 |     - |   550M |   0 |  54k|  57k|  58k|1429 | 12 |   0 |   0 | 3.202358e+04 | 5.800121e+04 |  81.12%| unknown
 2835s|     1 |     0 |498116 |     - |   556M |   0 |  54k|  57k|  58k|1438 | 13 |   0 |   0 | 3.203731e+04 | 5.800121e+04 |  81.04%| unknown
 2848s|     1 |     0 |501508 |     - |   562M |   0 |  54k|  57k|  58k|1449 | 14 |   0 |   0 | 3.204778e+04 | 5.800121e+04 |  80.98%| unknown
 2858s|     1 |     0 |503568 |     - |   567M |   0 |  54k|  57k|  58k|1455 | 15 |   0 |   0 | 3.205117e+04 | 5.800121e+04 |  80.96%| unknown
 2862s|     1 |     0 |504463 |     - |   574M |   0 |  54k|  57k|  58k|1464 | 16 |   0 |   0 | 3.205363e+04 | 5.800121e+04 |  80.95%| unknown
 2864s|     1 |     0 |504890 |     - |   580M |   0 |  54k|  57k|  58k|1468 | 17 |   0 |   0 | 3.205425e+04 | 5.800121e+04 |  80.95%| unknown
 2870s|     1 |     0 |506093 |     - |   587M |   0 |  54k|  57k|  58k|1473 | 18 |   0 |   0 | 3.205633e+04 | 5.800121e+04 |  80.94%| unknown
 time | node  | left  |LP iter|LP it/n|mem/heur|mdpt |vars |cons |rows |cuts |sepa|confs|strbr|  dualbound   | primalbound  |  gap   | compl. 
 2880s|     1 |     0 |508193 |     - |   592M |   0 |  54k|  57k|  58k|1476 | 19 |   0 |   0 | 3.206009e+04 | 5.800121e+04 |  80.91%| unknown
 2885s|     1 |     0 |509348 |     - |   598M |   0 |  54k|  57k|  58k|1480 | 20 |   0 |   0 | 3.206195e+04 | 5.800121e+04 |  80.90%| unknown
 2888s|     1 |     0 |509759 |     - |   599M |   0 |  54k|  57k|  58k|1485 | 21 |   0 |   0 | 3.206366e+04 | 5.800121e+04 |  80.89%| unknown
 2893s|     1 |     0 |510808 |     - |   599M |   0 |  54k|  57k|  58k|1490 | 22 |   0 |   0 | 3.206554e+04 | 5.800121e+04 |  80.88%| unknown
 2894s|     1 |     0 |510988 |     - |   600M |   0 |  54k|  57k|  58k|1493 | 23 |   0 |   0 | 3.206563e+04 | 5.800121e+04 |  80.88%| unknown
 2897s|     1 |     0 |511448 |     - |   600M |   0 |  54k|  57k|  57k|1494 | 24 |   0 |   0 | 3.206578e+04 | 5.800121e+04 |  80.88%| unknown
 2898s|     1 |     0 |511580 |     - |   600M |   0 |  54k|  57k|  57k|1496 | 25 |   0 |   0 | 3.206586e+04 | 5.800121e+04 |  80.88%| unknown
 2899s|     1 |     0 |511822 |     - |   601M |   0 |  54k|  57k|  57k|1497 | 26 |   0 |   0 | 3.206600e+04 | 5.800121e+04 |  80.88%| unknown
 2900s|     1 |     0 |511875 |     - |   601M |   0 |  54k|  57k|  57k|1498 | 27 |   0 |   0 | 3.206602e+04 | 5.800121e+04 |  80.88%| unknown

SCIP Status        : solving was interrupted [time limit reached]
Solving Time (sec) : 3600.02
Solving Nodes      : 1
Primal Bound       : +5.80012065704455e+04 (7 solutions)
Dual Bound         : +3.20660182107267e+04
Gap                : 80.88 %
primal_bound = 58001.20657044545, dual_bound = 32066.018210726656, gap = 44.7149117979454, time = 3602.64
